DIMACS_lns/graph-1000-650.col
p edge 1000 1847
e 2 426
e 2 88
e 2 330
e 2 928
e 2 190
e 2 295
e 2 421
e 3 339
e 3 160
e 3 34
e 3 699
e 7 817
e 7 430
e 7 505
e 7 192
e 7 675
e 8 88
e 8 235
e 8 246
e 8 753
e 8 505
e 8 913
e 9 97
e 9 618
e 9 649
e 9 598
e 9 651
e 9 41
e 9 115
e 10 118
e 10 816
e 10 725
e 10 956
e 10 110
e 10 421
e 11 335
e 11 233
e 11 248
e 11 183
e 11 551
e 13 162
e 13 616
e 13 157
e 14 428
e 14 331
e 14 760
e 14 137
e 14 43
e 15 357
e 15 993
e 15 80
e 15 265
e 15 547
e 15 470
e 15 155
e 17 796
e 17 409
e 17 461
e 18 468
e 18 419
e 18 870
e 18 137
e 18 113
e 20 795
e 20 918
e 20 624
e 20 975
e 21 796
e 21 376
e 21 24
e 21 524
e 21 308
e 24 421
e 24 424
e 24 415
e 24 120
e 24 104
e 25 340
e 25 577
e 25 822
e 25 587
e 25 670
e 25 481
e 25 805
e 25 819
e 25 599
e 26 145
e 26 918
e 26 262
e 26 579
e 29 820
e 29 115
e 29 792
e 29 733
e 29 658
e 29 978
e 29 144
e 29 968
e 31 660
e 31 522
e 31 182
e 31 235
e 31 512
e 34 289
e 34 989
e 34 623
e 34 169
e 34 183
e 36 703
e 36 515
e 36 948
e 36 657
e 36 434
e 36 632
e 36 288
e 37 244
e 37 707
e 37 772
e 38 619
e 38 961
e 38 666
e 38 183
e 39 96
e 39 791
e 39 388
e 39 841
e 40 639
e 40 325
e 40 380
e 40 594
e 40 725
e 40 646
e 40 304
e 41 169
e 41 696
e 41 725
e 41 626
e 41 371
e 42 571
e 42 341
e 42 947
e 42 262
e 42 513
e 42 98
e 43 855
e 43 209
e 43 527
e 44 280
e 44 355
e 44 179
e 45 769
e 45 68
e 45 251
e 45 178
e 46 514
e 46 427
e 46 842
e 47 483
e 47 933
e 47 917
e 49 216
e 49 379
e 49 353
e 49 388
e 49 699
e 50 308
e 50 189
e 50 626
e 51 695
e 51 597
e 51 671
e 51 730
e 51 588
e 53 221
e 53 687
e 53 338
e 54 105
e 54 990
e 54 764
e 55 515
e 55 477
e 55 962
e 57 194
e 57 917
e 57 339
e 57 882
e 57 423
e 57 433
e 57 437
e 58 967
e 58 407
e 58 814
e 58 322
e 58 631
e 58 687
e 59 477
e 59 689
e 59 796
e 59 585
e 60 680
e 60 74
e 60 514
e 63 425
e 63 933
e 63 617
e 63 87
e 65 652
e 65 278
e 65 855
e 65 976
e 65 450
e 65 261
e 65 938
e 66 407
e 66 259
e 66 717
e 66 94
e 68 954
e 68 677
e 69 437
e 69 98
e 69 959
e 69 435
e 70 891
e 70 516
e 70 905
e 70 292
e 70 967
e 70 261
e 70 643
e 70 143
e 71 948
e 71 85
e 71 510
e 71 755
e 74 628
e 74 618
e 74 967
e 74 551
e 74 160
e 75 677
e 75 163
e 75 717
e 77 742
e 77 888
e 77 211
e 78 623
e 78 514
e 78 915
e 80 455
e 80 979
e 80 852
e 80 681
e 80 678
e 81 215
e 81 840
e 81 702
e 82 875
e 82 896
e 82 756
e 83 634
e 83 857
e 83 477
e 83 493
e 83 258
e 84 725
e 84 804
e 84 657
e 84 99
e 84 552
e 85 806
e 85 616
e 85 191
e 85 726
e 87 605
e 87 711
e 87 649
e 87 566
e 87 897
e 88 555
e 88 176
e 88 877
e 89 372
e 89 831
e 89 848
e 89 921
e 89 497
e 89 595
e 90 390
e 90 582
e 90 192
e 91 781
e 91 890
e 91 540
e 92 676
e 92 535
e 92 372
e 93 461
e 93 856
e 93 311
e 94 523
e 94 386
e 94 865
e 94 471
e 94 321
e 95 921
e 95 424
e 95 892
e 96 124
e 96 530
e 96 662
e 97 913
e 97 141
e 97 191
e 97 845
e 98 667
e 98 493
e 99 367
e 99 395
e 99 455
e 99 407
e 99 791
e 100 782
e 100 718
e 100 605
e 100 274
e 100 870
e 101 206
e 101 561
e 101 278
e 101 978
e 101 997
e 101 363
e 101 883
e 101 969
e 104 170
e 104 565
e 104 551
e 104 260
e 104 657
e 105 388
e 105 111
e 106 727
e 106 766
e 106 979
e 106 246
e 108 800
e 108 487
e 108 408
e 108 166
e 108 584
e 108 436
e 108 457
e 108 814
e 109 783
e 109 856
e 109 619
e 109 589
e 110 207
e 110 231
e 110 714
e 110 399
e 111 729
e 111 247
e 111 620
e 112 601
e 112 983
e 112 588
e 112 788
e 113 303
e 113 126
e 113 522
e 113 634
e 113 156
e 114 468
e 114 657
e 114 322
e 114 202
e 114 422
e 115 522
e 115 709
e 116 646
e 116 162
e 116 588
e 117 358
e 117 727
e 117 879
e 117 258
e 117 522
e 118 281
e 118 555
e 118 962
e 118 644
e 118 579
e 120 666
e 120 291
e 120 184
e 120 690
e 121 749
e 121 535
e 121 427
e 121 678
e 122 223
e 122 980
e 122 342
e 122 999
e 122 730
e 123 530
e 123 274
e 123 402
e 123 614
e 123 712
e 124 788
e 124 694
e 124 870
e 126 250
e 126 754
e 127 875
e 127 384
e 127 815
e 127 216
e 129 634
e 129 609
e 129 172
e 130 567
e 130 584
e 130 675
e 130 696
e 131 767
e 131 976
e 131 205
e 131 262
e 131 1000
e 133 807
e 133 857
e 133 652
e 134 831
e 134 959
e 134 773
e 135 684
e 135 569
e 135 245
e 136 938
e 136 156
e 136 211
e 136 208
e 136 605
e 136 710
e 137 395
e 137 333
e 137 986
e 137 427
e 137 355
e 138 204
e 138 265
e 138 545
e 138 356
e 138 429
e 138 846
e 138 996
e 138 735
e 139 434
e 139 687
e 139 694
e 139 520
e 139 484
e 141 592
e 141 176
e 141 516
e 141 963
e 143 288
e 143 655
e 143 342
e 143 561
e 144 450
e 144 443
e 144 751
e 145 169
e 145 554
e 145 515
e 145 824
e 147 857
e 147 898
e 147 551
e 149 470
e 149 734
e 149 180
e 149 682
e 150 601
e 150 207
e 150 500
e 150 715
e 153 601
e 153 230
e 153 226
e 153 502
e 153 246
e 153 958
e 153 814
e 154 474
e 154 471
e 154 191
e 154 733
e 155 996
e 155 635
e 155 755
e 155 717
e 155 921
e 155 682
e 155 964
e 156 188
e 157 527
e 157 189
e 157 274
e 157 826
e 158 521
e 158 431
e 158 366
e 158 364
e 158 906
e 158 340
e 159 655
e 159 170
e 159 284
e 159 465
e 159 648
e 160 240
e 160 245
e 160 867
e 162 983
e 162 208
e 162 242
e 162 182
e 163 443
e 163 877
e 163 503
e 163 702
e 163 493
e 164 428
e 164 750
e 164 223
e 165 568
e 165 963
e 165 840
e 165 208
e 165 353
e 165 309
e 165 536
e 166 461
e 166 816
e 166 821
e 166 521
e 166 205
e 169 991
e 169 261
e 169 242
e 169 304
e 170 491
e 170 651
e 170 986
e 170 257
e 170 687
e 171 650
e 171 549
e 171 705
e 172 482
e 172 219
e 172 848
e 172 423
e 172 823
e 172 304
e 172 709
e 173 619
e 173 943
e 173 687
e 175 438
e 175 940
e 175 354
e 175 653
e 176 647
e 176 339
e 177 954
e 177 429
e 177 992
e 177 913
e 178 497
e 178 214
e 178 263
e 178 229
e 178 730
e 178 396
e 179 380
e 179 877
e 179 785
e 180 192
e 180 852
e 180 687
e 181 292
e 181 611
e 181 390
e 181 801
e 182 676
e 182 771
e 182 349
e 182 280
e 182 303
e 183 527
e 183 514
e 183 613
e 183 626
e 184 343
e 184 595
e 184 815
e 184 782
e 186 298
e 186 433
e 186 913
e 188 964
e 188 730
e 188 824
e 188 888
e 188 555
e 188 998
e 188 694
e 189 865
e 189 364
e 189 523
e 189 466
e 189 455
e 189 246
e 190 292
e 190 943
e 190 897
e 190 602
e 191 606
e 191 483
e 191 800
e 191 425
e 191 661
e 192 483
e 192 459
e 192 232
e 192 754
e 192 414
e 194 977
e 194 746
e 196 810
e 196 730
e 196 713
e 196 761
e 199 255
e 199 562
e 199 577
e 201 825
e 201 404
e 201 288
e 202 380
e 202 686
e 204 228
e 204 244
e 205 426
e 206 842
e 206 950
e 206 892
e 206 776
e 207 366
e 207 548
e 207 915
e 207 913
e 208 384
e 208 331
e 208 587
e 208 719
e 208 342
e 209 695
e 209 474
e 209 617
e 210 741
e 210 663
e 210 396
e 211 734
e 211 338
e 212 422
e 212 324
e 212 467
e 214 821
e 214 923
e 214 716
e 215 827
e 215 629
e 215 295
e 215 249
e 215 956
e 216 638
e 218 474
e 218 829
e 218 558
e 219 367
e 219 832
e 220 975
e 220 353
e 220 509
e 221 626
e 221 527
e 221 969
e 221 835
e 221 242
e 221 479
e 221 457
e 223 331
e 223 802
e 223 374
e 224 964
e 224 311
e 224 991
e 225 365
e 225 339
e 225 585
e 225 718
e 225 606
e 226 616
e 226 935
e 226 695
e 228 518
e 228 954
e 228 251
e 229 566
e 229 458
e 229 747
e 229 356
e 229 471
e 230 250
e 230 958
e 231 250
e 231 915
e 231 778
e 231 486
e 232 946
e 232 719
e 232 332
e 232 910
e 232 850
e 232 888
e 232 999
e 233 615
e 233 849
e 234 697
e 234 787
e 234 396
e 235 433
e 235 549
e 235 883
e 235 413
e 238 646
e 238 837
e 238 314
e 238 740
e 240 694
e 240 360
e 241 661
e 241 490
e 241 686
e 244 954
e 244 780
e 244 538
e 245 455
e 245 448
e 246 677
e 246 375
e 247 384
e 247 648
e 247 760
e 247 791
e 248 985
e 248 907
e 248 338
e 249 843
e 249 892
e 250 633
e 250 465
e 250 565
e 251 376
e 251 555
e 251 308
e 253 553
e 253 852
e 253 532
e 253 357
e 254 661
e 254 974
e 254 933
e 254 379
e 254 984
e 254 718
e 254 670
e 254 805
e 255 607
e 255 554
e 255 458
e 257 665
e 257 364
e 257 291
e 258 950
e 258 1000
e 258 852
e 259 714
e 259 467
e 260 549
e 260 997
e 260 540
e 260 582
e 260 752
e 260 678
e 261 611
e 261 413
e 262 421
e 262 839
e 262 582
e 263 797
e 263 789
e 263 288
e 263 534
e 263 913
e 264 710
e 264 651
e 264 832
e 264 864
e 264 772
e 265 640
e 265 469
e 265 801
e 265 334
e 268 965
e 268 633
e 268 510
e 268 470
e 268 970
e 270 921
e 270 631
e 270 346
e 270 760
e 270 385
e 274 502
e 274 417
e 274 469
e 274 647
e 277 877
e 277 567
e 277 969
e 277 471
e 277 324
e 277 752
e 278 655
e 278 705
e 278 443
e 280 826
e 280 473
e 281 773
e 281 839
e 281 338
e 282 712
e 282 745
e 282 780
e 282 773
e 282 306
e 284 998
e 284 723
e 284 988
e 284 733
e 284 527
e 285 719
e 285 529
e 285 346
e 285 970
e 285 899
e 285 553
e 285 850
e 286 849
e 286 647
e 286 996
e 286 862
e 287 353
e 287 545
e 287 567
e 288 339
e 288 474
e 288 963
e 289 444
e 289 513
e 289 789
e 289 778
e 289 761
e 291 529
e 292 454
e 292 545
e 293 875
e 293 357
e 293 604
e 293 342
e 293 725
e 293 611
e 295 632
e 295 705
e 295 975
e 295 958
e 296 622
e 296 376
e 296 658
e 298 828
e 298 346
e 298 733
e 298 742
e 301 829
e 301 354
e 301 943
e 301 419
e 302 801
e 302 917
e 302 326
e 303 968
e 303 708
e 303 620
e 304 484
e 304 743
e 306 797
e 306 565
e 306 358
e 306 454
e 306 567
e 306 533
e 306 580
e 306 947
e 306 957
e 308 580
e 308 751
e 308 395
e 309 345
e 309 540
e 309 839
e 309 404
e 310 632
e 310 640
e 310 606
e 310 687
e 311 343
e 311 756
e 311 667
e 314 690
e 314 350
e 314 953
e 319 465
e 319 815
e 319 699
e 321 826
e 321 784
e 322 650
e 322 823
e 322 555
e 323 745
e 323 335
e 323 481
e 324 404
e 324 784
e 324 670
e 324 455
e 325 840
e 325 522
e 326 509
e 326 373
e 326 375
e 328 485
e 328 684
e 328 732
e 329 952
e 329 515
e 329 1000
e 330 978
e 330 933
e 331 533
e 332 562
e 332 744
e 333 648
e 333 633
e 333 610
e 334 421
e 334 731
e 334 579
e 335 746
e 335 933
e 335 459
e 338 467
e 338 486
e 339 832
e 339 423
e 339 519
e 340 481
e 340 615
e 341 540
e 341 711
e 341 680
e 342 450
e 343 652
e 343 616
e 343 421
e 344 915
e 344 728
e 344 956
e 345 767
e 345 384
e 345 894
e 346 483
e 346 816
e 346 363
e 349 838
e 349 787
e 349 431
e 349 515
e 350 785
e 350 710
e 350 493
e 353 992
e 353 653
e 354 837
e 354 399
e 354 975
e 354 944
e 355 651
e 355 469
e 355 970
e 355 382
e 355 665
e 356 436
e 356 482
e 357 821
e 357 466
e 357 707
e 357 771
e 358 734
e 359 709
e 359 607
e 359 736
e 360 369
e 360 524
e 360 640
e 360 579
e 360 437
e 360 588
e 361 752
e 361 654
e 361 874
e 361 985
e 361 815
e 362 515
e 362 741
e 362 905
e 362 618
e 362 512
e 363 734
e 364 500
e 365 662
e 365 977
e 365 756
e 366 906
e 366 404
e 366 479
e 367 965
e 367 510
e 369 722
e 369 583
e 371 783
e 371 435
e 371 879
e 372 464
e 372 989
e 372 536
e 373 609
e 373 833
e 374 578
e 374 482
e 375 451
e 375 692
e 375 530
e 377 623
e 377 755
e 377 926
e 377 609
e 377 436
e 378 670
e 378 434
e 378 633
e 379 611
e 379 964
e 380 753
e 380 393
e 382 588
e 382 747
e 382 494
e 382 875
e 383 409
e 383 521
e 383 596
e 383 939
e 383 829
e 383 655
e 383 831
e 383 837
e 384 759
e 384 547
e 384 846
e 384 939
e 384 968
e 385 740
e 385 629
e 385 426
e 385 713
e 386 429
e 386 801
e 388 926
e 388 401
e 388 538
e 389 644
e 389 593
e 389 467
e 390 824
e 393 887
e 393 593
e 395 996
e 396 852
e 396 599
e 396 756
e 396 838
e 399 888
e 399 770
e 399 547
e 399 934
e 400 465
e 400 718
e 400 877
e 400 944
e 400 806
e 401 616
e 401 664
e 402 459
e 402 636
e 402 849
e 402 484
e 404 411
e 404 903
e 407 723
e 407 735
e 407 629
e 407 638
e 408 481
e 408 725
e 409 776
e 409 464
e 409 592
e 409 701
e 411 596
e 411 468
e 411 788
e 413 753
e 413 450
e 413 962
e 413 823
e 413 928
e 414 726
e 414 843
e 414 715
e 415 747
e 415 891
e 415 633
e 415 665
e 415 478
e 417 696
e 417 881
e 417 831
e 417 888
e 419 588
e 421 633
e 422 857
e 423 887
e 423 536
e 423 642
e 424 922
e 424 782
e 424 908
e 424 630
e 425 896
e 425 628
e 426 523
e 426 441
e 427 851
e 427 652
e 427 602
e 428 617
e 428 583
e 429 746
e 429 767
e 430 823
e 430 720
e 431 544
e 433 934
e 434 560
e 434 1000
e 435 516
e 435 984
e 435 980
e 436 816
e 436 538
e 436 998
e 436 757
e 437 634
e 438 907
e 438 727
e 438 971
e 441 442
e 441 962
e 442 642
e 442 487
e 443 750
e 443 513
e 443 677
e 443 938
e 444 516
e 444 833
e 448 903
e 448 459
e 448 638
e 450 524
e 450 659
e 450 663
e 450 558
e 450 989
e 451 926
e 451 888
e 454 888
e 455 842
e 455 822
e 455 615
e 456 654
e 456 755
e 456 490
e 457 667
e 458 614
e 458 856
e 458 905
e 459 553
e 459 518
e 459 632
e 459 489
e 461 785
e 461 654
e 461 610
e 461 826
e 462 892
e 462 467
e 462 600
e 464 620
e 464 600
e 465 894
e 465 530
e 466 561
e 466 966
e 466 754
e 466 818
e 466 505
e 467 606
e 468 529
e 469 921
e 469 918
e 469 712
e 469 683
e 470 678
e 470 510
e 470 584
e 471 800
e 471 729
e 471 727
e 471 915
e 473 624
e 473 864
e 474 908
e 474 686
e 474 767
e 474 475
e 474 896
e 474 642
e 474 487
e 475 855
e 475 617
e 477 552
e 477 550
e 478 742
e 478 604
e 479 819
e 479 803
e 482 802
e 483 493
e 483 791
e 483 933
e 484 593
e 484 641
e 485 617
e 485 980
e 486 797
e 486 905
e 486 754
e 486 684
e 486 795
e 488 970
e 488 644
e 488 625
e 489 691
e 489 580
e 490 892
e 490 908
e 490 630
e 490 507
e 491 659
e 491 823
e 491 796
e 491 887
e 493 816
e 493 970
e 493 660
e 493 948
e 494 991
e 494 993
e 494 761
e 495 952
e 495 638
e 495 522
e 495 552
e 497 595
e 497 622
e 497 643
e 497 633
e 497 819
e 499 960
e 499 578
e 499 881
e 500 990
e 500 698
e 500 901
e 502 751
e 502 636
e 502 746
e 503 931
e 503 549
e 505 903
e 506 891
e 506 533
e 506 671
e 506 773
e 506 635
e 506 818
e 507 788
e 507 937
e 509 885
e 509 569
e 512 954
e 512 820
e 512 681
e 512 516
e 513 732
e 513 558
e 513 653
e 514 917
e 514 891
e 514 628
e 514 998
e 514 611
e 516 993
e 518 595
e 518 940
e 518 1000
e 518 630
e 518 953
e 519 983
e 519 824
e 520 663
e 520 629
e 521 953
e 522 959
e 523 705
e 524 932
e 524 668
e 524 605
e 527 712
e 527 981
e 527 887
e 528 667
e 528 780
e 528 580
e 529 858
e 529 601
e 530 788
e 530 988
e 530 920
e 532 736
e 532 723
e 532 698
e 533 752
e 534 991
e 534 674
e 534 997
e 534 769
e 535 593
e 536 710
e 536 696
e 536 757
e 536 917
e 538 799
e 540 872
e 540 910
e 541 633
e 541 594
e 541 917
e 543 971
e 543 835
e 543 985
e 543 923
e 544 929
e 544 571
e 545 602
e 545 710
e 545 769
e 546 558
e 546 898
e 546 967
e 546 807
e 547 963
e 547 636
e 547 967
e 548 881
e 548 680
e 548 937
e 549 900
e 549 817
e 550 576
e 550 797
e 550 956
e 551 971
e 551 815
e 551 641
e 552 751
e 552 996
e 554 826
e 554 664
e 555 979
e 560 675
e 560 598
e 561 858
e 561 820
e 561 738
e 561 768
e 562 757
e 565 835
e 566 676
e 567 788
e 568 935
e 568 658
e 568 899
e 569 805
e 571 938
e 571 855
e 571 624
e 576 872
e 576 666
e 577 788
e 577 988
e 577 764
e 577 824
e 577 622
e 578 962
e 580 644
e 580 791
e 580 975
e 581 761
e 581 922
e 581 827
e 582 728
e 582 978
e 582 602
e 582 625
e 583 762
e 584 819
e 585 895
e 587 640
e 587 959
e 587 772
e 588 805
e 588 638
e 588 852
e 588 718
e 588 622
e 589 744
e 589 877
e 590 783
e 590 941
e 590 638
e 592 610
e 593 768
e 594 702
e 594 776
e 595 717
e 595 900
e 595 970
e 596 993
e 596 970
e 596 920
e 596 978
e 596 659
e 597 862
e 597 950
e 598 628
e 598 831
e 598 725
e 599 803
e 600 821
e 600 830
e 600 632
e 601 957
e 601 631
e 601 743
e 602 926
e 602 668
e 602 722
e 604 864
e 605 710
e 606 865
e 606 749
e 606 939
e 607 751
e 607 797
e 609 659
e 609 992
e 613 944
e 613 921
e 613 869
e 613 948
e 614 939
e 615 713
e 615 933
e 616 943
e 617 965
e 617 895
e 618 736
e 620 906
e 620 726
e 620 687
e 620 817
e 621 697
e 621 939
e 621 923
e 622 766
e 623 742
e 624 772
e 624 970
e 624 710
e 625 921
e 625 947
e 625 923
e 628 740
e 628 918
e 628 633
e 628 736
e 630 769
e 631 683
e 631 810
e 631 933
e 635 937
e 636 816
e 636 920
e 637 857
e 637 974
e 637 640
e 638 689
e 638 662
e 638 922
e 638 960
e 639 858
e 639 719
e 639 971
e 640 962
e 641 885
e 643 697
e 643 848
e 644 841
e 644 872
e 644 791
e 645 895
e 645 753
e 645 687
e 645 768
e 645 660
e 646 788
e 647 653
e 648 961
e 648 857
e 649 845
e 649 770
e 649 651
e 650 655
e 651 792
e 651 944
e 651 903
e 651 797
e 652 862
e 653 908
e 653 759
e 654 869
e 654 851
e 655 802
e 657 971
e 657 727
e 659 731
e 660 803
e 660 959
e 660 897
e 661 931
e 662 932
e 664 894
e 665 674
e 665 875
e 666 897
e 666 870
e 668 938
e 670 768
e 671 782
e 671 711
e 674 787
e 674 749
e 674 789
e 675 851
e 675 769
e 675 830
e 676 899
e 680 993
e 680 686
e 681 745
e 682 997
e 683 839
e 686 719
e 687 773
e 687 879
e 687 762
e 687 981
e 689 918
e 690 974
e 691 785
e 691 796
e 691 750
e 691 761
e 691 877
e 692 790
e 692 801
e 694 978
e 694 855
e 694 959
e 695 825
e 695 727
e 695 947
e 696 997
e 698 918
e 698 996
e 698 856
e 701 831
e 701 828
e 703 804
e 703 929
e 705 843
e 707 871
e 707 824
e 708 960
e 708 725
e 709 738
e 709 988
e 710 780
e 710 815
e 711 950
e 711 935
e 713 974
e 713 743
e 713 825
e 713 829
e 714 728
e 714 874
e 714 749
e 715 803
e 716 968
e 716 989
e 719 788
e 719 782
e 720 923
e 720 958
e 722 917
e 722 742
e 723 877
e 723 946
e 725 833
e 725 740
e 726 976
e 727 849
e 727 1000
e 728 807
e 729 822
e 730 761
e 731 901
e 732 792
e 733 828
e 735 993
e 736 747
e 738 966
e 738 895
e 740 963
e 741 810
e 742 920
e 742 877
e 744 846
e 744 782
e 746 900
e 746 983
e 747 756
e 749 800
e 749 752
e 749 933
e 749 885
e 751 931
e 751 795
e 751 905
e 752 890
e 752 838
e 753 824
e 753 806
e 754 997
e 759 773
e 761 998
e 762 805
e 762 922
e 762 871
e 764 915
e 766 797
e 767 940
e 770 959
e 771 784
e 771 807
e 772 984
e 773 917
e 778 935
e 778 849
e 778 974
e 780 947
e 780 938
e 781 894
e 781 970
e 782 877
e 784 991
e 784 962
e 787 934
e 790 835
e 790 816
e 792 965
e 795 850
e 795 975
e 795 821
e 796 885
e 796 983
e 797 906
e 799 899
e 799 802
e 804 856
e 805 989
e 806 905
e 807 884
e 810 948
e 816 960
e 816 957
e 817 999
e 818 907
e 818 942
e 818 929
e 819 885
e 820 957
e 820 830
e 823 867
e 824 883
e 826 981
e 827 981
e 829 852
e 829 990
e 829 988
e 829 948
e 833 864
e 833 874
e 835 966
e 837 942
e 839 986
e 839 910
e 840 855
e 841 899
e 842 940
e 843 871
e 845 989
e 846 967
e 851 961
e 857 998
e 857 963
e 857 1000
e 857 941
e 862 908
e 862 901
e 864 952
e 867 984
e 869 941
e 872 883
e 872 946
e 872 881
e 874 940
e 882 961
e 882 966
e 884 943
e 884 977
e 887 992
e 890 944
e 891 926
e 894 943
e 896 897
e 898 907
e 898 906
e 899 962
e 903 917
e 907 932
e 908 943
e 908 921
e 908 981
e 917 928
e 922 953
e 938 996
e 941 961
e 942 964
e 954 956
e 961 997
e 965 976
e 977 993
e 993 999
