txt_Ins/graph-1000-650.txt
n 1000
e 1 425
e 1 87
e 1 329
e 1 927
e 1 189
e 1 294
e 1 420
e 2 338
e 2 159
e 2 33
e 2 698
e 6 816
e 6 429
e 6 504
e 6 191
e 6 674
e 7 87
e 7 234
e 7 245
e 7 752
e 7 504
e 7 912
e 8 96
e 8 617
e 8 648
e 8 597
e 8 650
e 8 40
e 8 114
e 9 117
e 9 815
e 9 724
e 9 955
e 9 109
e 9 420
e 10 334
e 10 232
e 10 247
e 10 182
e 10 550
e 12 161
e 12 615
e 12 156
e 13 427
e 13 330
e 13 759
e 13 136
e 13 42
e 14 356
e 14 992
e 14 79
e 14 264
e 14 546
e 14 469
e 14 154
e 16 795
e 16 408
e 16 460
e 17 467
e 17 418
e 17 869
e 17 136
e 17 112
e 19 794
e 19 917
e 19 623
e 19 974
e 20 795
e 20 375
e 20 23
e 20 523
e 20 307
e 23 420
e 23 423
e 23 414
e 23 119
e 23 103
e 24 339
e 24 576
e 24 821
e 24 586
e 24 669
e 24 480
e 24 804
e 24 818
e 24 598
e 25 144
e 25 917
e 25 261
e 25 578
e 28 819
e 28 114
e 28 791
e 28 732
e 28 657
e 28 977
e 28 143
e 28 967
e 30 659
e 30 521
e 30 181
e 30 234
e 30 511
e 33 288
e 33 988
e 33 622
e 33 168
e 33 182
e 35 702
e 35 514
e 35 947
e 35 656
e 35 433
e 35 631
e 35 287
e 36 243
e 36 706
e 36 771
e 37 618
e 37 960
e 37 665
e 37 182
e 38 95
e 38 790
e 38 387
e 38 840
e 39 638
e 39 324
e 39 379
e 39 593
e 39 724
e 39 645
e 39 303
e 40 168
e 40 695
e 40 724
e 40 625
e 40 370
e 41 570
e 41 340
e 41 946
e 41 261
e 41 512
e 41 97
e 42 854
e 42 208
e 42 526
e 43 279
e 43 354
e 43 178
e 44 768
e 44 67
e 44 250
e 44 177
e 45 513
e 45 426
e 45 841
e 46 482
e 46 932
e 46 916
e 48 215
e 48 378
e 48 352
e 48 387
e 48 698
e 49 307
e 49 188
e 49 625
e 50 694
e 50 596
e 50 670
e 50 729
e 50 587
e 52 220
e 52 686
e 52 337
e 53 104
e 53 989
e 53 763
e 54 514
e 54 476
e 54 961
e 56 193
e 56 916
e 56 338
e 56 881
e 56 422
e 56 432
e 56 436
e 57 966
e 57 406
e 57 813
e 57 321
e 57 630
e 57 686
e 58 476
e 58 688
e 58 795
e 58 584
e 59 679
e 59 73
e 59 513
e 62 424
e 62 932
e 62 616
e 62 86
e 64 651
e 64 277
e 64 854
e 64 975
e 64 449
e 64 260
e 64 937
e 65 406
e 65 258
e 65 716
e 65 93
e 67 953
e 67 676
e 68 436
e 68 97
e 68 958
e 68 434
e 69 890
e 69 515
e 69 904
e 69 291
e 69 966
e 69 260
e 69 642
e 69 142
e 70 947
e 70 84
e 70 509
e 70 754
e 73 627
e 73 617
e 73 966
e 73 550
e 73 159
e 74 676
e 74 162
e 74 716
e 76 741
e 76 887
e 76 210
e 77 622
e 77 513
e 77 914
e 79 454
e 79 978
e 79 851
e 79 680
e 79 677
e 80 214
e 80 839
e 80 701
e 81 874
e 81 895
e 81 755
e 82 633
e 82 856
e 82 476
e 82 492
e 82 257
e 83 724
e 83 803
e 83 656
e 83 98
e 83 551
e 84 805
e 84 615
e 84 190
e 84 725
e 86 604
e 86 710
e 86 648
e 86 565
e 86 896
e 87 554
e 87 175
e 87 876
e 88 371
e 88 830
e 88 847
e 88 920
e 88 496
e 88 594
e 89 389
e 89 581
e 89 191
e 90 780
e 90 889
e 90 539
e 91 675
e 91 534
e 91 371
e 92 460
e 92 855
e 92 310
e 93 522
e 93 385
e 93 864
e 93 470
e 93 320
e 94 920
e 94 423
e 94 891
e 95 123
e 95 529
e 95 661
e 96 912
e 96 140
e 96 190
e 96 844
e 97 666
e 97 492
e 98 366
e 98 394
e 98 454
e 98 406
e 98 790
e 99 781
e 99 717
e 99 604
e 99 273
e 99 869
e 100 205
e 100 560
e 100 277
e 100 977
e 100 996
e 100 362
e 100 882
e 100 968
e 103 169
e 103 564
e 103 550
e 103 259
e 103 656
e 104 387
e 104 110
e 105 726
e 105 765
e 105 978
e 105 245
e 107 799
e 107 486
e 107 407
e 107 165
e 107 583
e 107 435
e 107 456
e 107 813
e 108 782
e 108 855
e 108 618
e 108 588
e 109 206
e 109 230
e 109 713
e 109 398
e 110 728
e 110 246
e 110 619
e 111 600
e 111 982
e 111 587
e 111 787
e 112 302
e 112 125
e 112 521
e 112 633
e 112 155
e 113 467
e 113 656
e 113 321
e 113 201
e 113 421
e 114 521
e 114 708
e 115 645
e 115 161
e 115 587
e 116 357
e 116 726
e 116 878
e 116 257
e 116 521
e 117 280
e 117 554
e 117 961
e 117 643
e 117 578
e 119 665
e 119 290
e 119 183
e 119 689
e 120 748
e 120 534
e 120 426
e 120 677
e 121 222
e 121 979
e 121 341
e 121 998
e 121 729
e 122 529
e 122 273
e 122 401
e 122 613
e 122 711
e 123 787
e 123 693
e 123 869
e 125 249
e 125 753
e 126 874
e 126 383
e 126 814
e 126 215
e 128 633
e 128 608
e 128 171
e 129 566
e 129 583
e 129 674
e 129 695
e 130 766
e 130 975
e 130 204
e 130 261
e 130 999
e 132 806
e 132 856
e 132 651
e 133 830
e 133 958
e 133 772
e 134 683
e 134 568
e 134 244
e 135 937
e 135 155
e 135 210
e 135 207
e 135 604
e 135 709
e 136 394
e 136 332
e 136 985
e 136 426
e 136 354
e 137 203
e 137 264
e 137 544
e 137 355
e 137 428
e 137 845
e 137 995
e 137 734
e 138 433
e 138 686
e 138 693
e 138 519
e 138 483
e 140 591
e 140 175
e 140 515
e 140 962
e 142 287
e 142 654
e 142 341
e 142 560
e 143 449
e 143 442
e 143 750
e 144 168
e 144 553
e 144 514
e 144 823
e 146 856
e 146 897
e 146 550
e 148 469
e 148 733
e 148 179
e 148 681
e 149 600
e 149 206
e 149 499
e 149 714
e 152 600
e 152 229
e 152 225
e 152 501
e 152 245
e 152 957
e 152 813
e 153 473
e 153 470
e 153 190
e 153 732
e 154 995
e 154 634
e 154 754
e 154 716
e 154 920
e 154 681
e 154 963
e 155 187
e 156 526
e 156 188
e 156 273
e 156 825
e 157 520
e 157 430
e 157 365
e 157 363
e 157 905
e 157 339
e 158 654
e 158 169
e 158 283
e 158 464
e 158 647
e 159 239
e 159 244
e 159 866
e 161 982
e 161 207
e 161 241
e 161 181
e 162 442
e 162 876
e 162 502
e 162 701
e 162 492
e 163 427
e 163 749
e 163 222
e 164 567
e 164 962
e 164 839
e 164 207
e 164 352
e 164 308
e 164 535
e 165 460
e 165 815
e 165 820
e 165 520
e 165 204
e 168 990
e 168 260
e 168 241
e 168 303
e 169 490
e 169 650
e 169 985
e 169 256
e 169 686
e 170 649
e 170 548
e 170 704
e 171 481
e 171 218
e 171 847
e 171 422
e 171 822
e 171 303
e 171 708
e 172 618
e 172 942
e 172 686
e 174 437
e 174 939
e 174 353
e 174 652
e 175 646
e 175 338
e 176 953
e 176 428
e 176 991
e 176 912
e 177 496
e 177 213
e 177 262
e 177 228
e 177 729
e 177 395
e 178 379
e 178 876
e 178 784
e 179 191
e 179 851
e 179 686
e 180 291
e 180 610
e 180 389
e 180 800
e 181 675
e 181 770
e 181 348
e 181 279
e 181 302
e 182 526
e 182 513
e 182 612
e 182 625
e 183 342
e 183 594
e 183 814
e 183 781
e 185 297
e 185 432
e 185 912
e 187 963
e 187 729
e 187 823
e 187 887
e 187 554
e 187 997
e 187 693
e 188 864
e 188 363
e 188 522
e 188 465
e 188 454
e 188 245
e 189 291
e 189 942
e 189 896
e 189 601
e 190 605
e 190 482
e 190 799
e 190 424
e 190 660
e 191 482
e 191 458
e 191 231
e 191 753
e 191 413
e 193 976
e 193 745
e 195 809
e 195 729
e 195 712
e 195 760
e 198 254
e 198 561
e 198 576
e 200 824
e 200 403
e 200 287
e 201 379
e 201 685
e 203 227
e 203 243
e 204 425
e 205 841
e 205 949
e 205 891
e 205 775
e 206 365
e 206 547
e 206 914
e 206 912
e 207 383
e 207 330
e 207 586
e 207 718
e 207 341
e 208 694
e 208 473
e 208 616
e 209 740
e 209 662
e 209 395
e 210 733
e 210 337
e 211 421
e 211 323
e 211 466
e 213 820
e 213 922
e 213 715
e 214 826
e 214 628
e 214 294
e 214 248
e 214 955
e 215 637
e 217 473
e 217 828
e 217 557
e 218 366
e 218 831
e 219 974
e 219 352
e 219 508
e 220 625
e 220 526
e 220 968
e 220 834
e 220 241
e 220 478
e 220 456
e 222 330
e 222 801
e 222 373
e 223 963
e 223 310
e 223 990
e 224 364
e 224 338
e 224 584
e 224 717
e 224 605
e 225 615
e 225 934
e 225 694
e 227 517
e 227 953
e 227 250
e 228 565
e 228 457
e 228 746
e 228 355
e 228 470
e 229 249
e 229 957
e 230 249
e 230 914
e 230 777
e 230 485
e 231 945
e 231 718
e 231 331
e 231 909
e 231 849
e 231 887
e 231 998
e 232 614
e 232 848
e 233 696
e 233 786
e 233 395
e 234 432
e 234 548
e 234 882
e 234 412
e 237 645
e 237 836
e 237 313
e 237 739
e 239 693
e 239 359
e 240 660
e 240 489
e 240 685
e 243 953
e 243 779
e 243 537
e 244 454
e 244 447
e 245 676
e 245 374
e 246 383
e 246 647
e 246 759
e 246 790
e 247 984
e 247 906
e 247 337
e 248 842
e 248 891
e 249 632
e 249 464
e 249 564
e 250 375
e 250 554
e 250 307
e 252 552
e 252 851
e 252 531
e 252 356
e 253 660
e 253 973
e 253 932
e 253 378
e 253 983
e 253 717
e 253 669
e 253 804
e 254 606
e 254 553
e 254 457
e 256 664
e 256 363
e 256 290
e 257 949
e 257 999
e 257 851
e 258 713
e 258 466
e 259 548
e 259 996
e 259 539
e 259 581
e 259 751
e 259 677
e 260 610
e 260 412
e 261 420
e 261 838
e 261 581
e 262 796
e 262 788
e 262 287
e 262 533
e 262 912
e 263 709
e 263 650
e 263 831
e 263 863
e 263 771
e 264 639
e 264 468
e 264 800
e 264 333
e 267 964
e 267 632
e 267 509
e 267 469
e 267 969
e 269 920
e 269 630
e 269 345
e 269 759
e 269 384
e 273 501
e 273 416
e 273 468
e 273 646
e 276 876
e 276 566
e 276 968
e 276 470
e 276 323
e 276 751
e 277 654
e 277 704
e 277 442
e 279 825
e 279 472
e 280 772
e 280 838
e 280 337
e 281 711
e 281 744
e 281 779
e 281 772
e 281 305
e 283 997
e 283 722
e 283 987
e 283 732
e 283 526
e 284 718
e 284 528
e 284 345
e 284 969
e 284 898
e 284 552
e 284 849
e 285 848
e 285 646
e 285 995
e 285 861
e 286 352
e 286 544
e 286 566
e 287 338
e 287 473
e 287 962
e 288 443
e 288 512
e 288 788
e 288 777
e 288 760
e 290 528
e 291 453
e 291 544
e 292 874
e 292 356
e 292 603
e 292 341
e 292 724
e 292 610
e 294 631
e 294 704
e 294 974
e 294 957
e 295 621
e 295 375
e 295 657
e 297 827
e 297 345
e 297 732
e 297 741
e 300 828
e 300 353
e 300 942
e 300 418
e 301 800
e 301 916
e 301 325
e 302 967
e 302 707
e 302 619
e 303 483
e 303 742
e 305 796
e 305 564
e 305 357
e 305 453
e 305 566
e 305 532
e 305 579
e 305 946
e 305 956
e 307 579
e 307 750
e 307 394
e 308 344
e 308 539
e 308 838
e 308 403
e 309 631
e 309 639
e 309 605
e 309 686
e 310 342
e 310 755
e 310 666
e 313 689
e 313 349
e 313 952
e 318 464
e 318 814
e 318 698
e 320 825
e 320 783
e 321 649
e 321 822
e 321 554
e 322 744
e 322 334
e 322 480
e 323 403
e 323 783
e 323 669
e 323 454
e 324 839
e 324 521
e 325 508
e 325 372
e 325 374
e 327 484
e 327 683
e 327 731
e 328 951
e 328 514
e 328 999
e 329 977
e 329 932
e 330 532
e 331 561
e 331 743
e 332 647
e 332 632
e 332 609
e 333 420
e 333 730
e 333 578
e 334 745
e 334 932
e 334 458
e 337 466
e 337 485
e 338 831
e 338 422
e 338 518
e 339 480
e 339 614
e 340 539
e 340 710
e 340 679
e 341 449
e 342 651
e 342 615
e 342 420
e 343 914
e 343 727
e 343 955
e 344 766
e 344 383
e 344 893
e 345 482
e 345 815
e 345 362
e 348 837
e 348 786
e 348 430
e 348 514
e 349 784
e 349 709
e 349 492
e 352 991
e 352 652
e 353 836
e 353 398
e 353 974
e 353 943
e 354 650
e 354 468
e 354 969
e 354 381
e 354 664
e 355 435
e 355 481
e 356 820
e 356 465
e 356 706
e 356 770
e 357 733
e 358 708
e 358 606
e 358 735
e 359 368
e 359 523
e 359 639
e 359 578
e 359 436
e 359 587
e 360 751
e 360 653
e 360 873
e 360 984
e 360 814
e 361 514
e 361 740
e 361 904
e 361 617
e 361 511
e 362 733
e 363 499
e 364 661
e 364 976
e 364 755
e 365 905
e 365 403
e 365 478
e 366 964
e 366 509
e 368 721
e 368 582
e 370 782
e 370 434
e 370 878
e 371 463
e 371 988
e 371 535
e 372 608
e 372 832
e 373 577
e 373 481
e 374 450
e 374 691
e 374 529
e 376 622
e 376 754
e 376 925
e 376 608
e 376 435
e 377 669
e 377 433
e 377 632
e 378 610
e 378 963
e 379 752
e 379 392
e 381 587
e 381 746
e 381 493
e 381 874
e 382 408
e 382 520
e 382 595
e 382 938
e 382 828
e 382 654
e 382 830
e 382 836
e 383 758
e 383 546
e 383 845
e 383 938
e 383 967
e 384 739
e 384 628
e 384 425
e 384 712
e 385 428
e 385 800
e 387 925
e 387 400
e 387 537
e 388 643
e 388 592
e 388 466
e 389 823
e 392 886
e 392 592
e 394 995
e 395 851
e 395 598
e 395 755
e 395 837
e 398 887
e 398 769
e 398 546
e 398 933
e 399 464
e 399 717
e 399 876
e 399 943
e 399 805
e 400 615
e 400 663
e 401 458
e 401 635
e 401 848
e 401 483
e 403 410
e 403 902
e 406 722
e 406 734
e 406 628
e 406 637
e 407 480
e 407 724
e 408 775
e 408 463
e 408 591
e 408 700
e 410 595
e 410 467
e 410 787
e 412 752
e 412 449
e 412 961
e 412 822
e 412 927
e 413 725
e 413 842
e 413 714
e 414 746
e 414 890
e 414 632
e 414 664
e 414 477
e 416 695
e 416 880
e 416 830
e 416 887
e 418 587
e 420 632
e 421 856
e 422 886
e 422 535
e 422 641
e 423 921
e 423 781
e 423 907
e 423 629
e 424 895
e 424 627
e 425 522
e 425 440
e 426 850
e 426 651
e 426 601
e 427 616
e 427 582
e 428 745
e 428 766
e 429 822
e 429 719
e 430 543
e 432 933
e 433 559
e 433 999
e 434 515
e 434 983
e 434 979
e 435 815
e 435 537
e 435 997
e 435 756
e 436 633
e 437 906
e 437 726
e 437 970
e 440 441
e 440 961
e 441 641
e 441 486
e 442 749
e 442 512
e 442 676
e 442 937
e 443 515
e 443 832
e 447 902
e 447 458
e 447 637
e 449 523
e 449 658
e 449 662
e 449 557
e 449 988
e 450 925
e 450 887
e 453 887
e 454 841
e 454 821
e 454 614
e 455 653
e 455 754
e 455 489
e 456 666
e 457 613
e 457 855
e 457 904
e 458 552
e 458 517
e 458 631
e 458 488
e 460 784
e 460 653
e 460 609
e 460 825
e 461 891
e 461 466
e 461 599
e 463 619
e 463 599
e 464 893
e 464 529
e 465 560
e 465 965
e 465 753
e 465 817
e 465 504
e 466 605
e 467 528
e 468 920
e 468 917
e 468 711
e 468 682
e 469 677
e 469 509
e 469 583
e 470 799
e 470 728
e 470 726
e 470 914
e 472 623
e 472 863
e 473 907
e 473 685
e 473 766
e 473 474
e 473 895
e 473 641
e 473 486
e 474 854
e 474 616
e 476 551
e 476 549
e 477 741
e 477 603
e 478 818
e 478 802
e 481 801
e 482 492
e 482 790
e 482 932
e 483 592
e 483 640
e 484 616
e 484 979
e 485 796
e 485 904
e 485 753
e 485 683
e 485 794
e 487 969
e 487 643
e 487 624
e 488 690
e 488 579
e 489 891
e 489 907
e 489 629
e 489 506
e 490 658
e 490 822
e 490 795
e 490 886
e 492 815
e 492 969
e 492 659
e 492 947
e 493 990
e 493 992
e 493 760
e 494 951
e 494 637
e 494 521
e 494 551
e 496 594
e 496 621
e 496 642
e 496 632
e 496 818
e 498 959
e 498 577
e 498 880
e 499 989
e 499 697
e 499 900
e 501 750
e 501 635
e 501 745
e 502 930
e 502 548
e 504 902
e 505 890
e 505 532
e 505 670
e 505 772
e 505 634
e 505 817
e 506 787
e 506 936
e 508 884
e 508 568
e 511 953
e 511 819
e 511 680
e 511 515
e 512 731
e 512 557
e 512 652
e 513 916
e 513 890
e 513 627
e 513 997
e 513 610
e 515 992
e 517 594
e 517 939
e 517 999
e 517 629
e 517 952
e 518 982
e 518 823
e 519 662
e 519 628
e 520 952
e 521 958
e 522 704
e 523 931
e 523 667
e 523 604
e 526 711
e 526 980
e 526 886
e 527 666
e 527 779
e 527 579
e 528 857
e 528 600
e 529 787
e 529 987
e 529 919
e 531 735
e 531 722
e 531 697
e 532 751
e 533 990
e 533 673
e 533 996
e 533 768
e 534 592
e 535 709
e 535 695
e 535 756
e 535 916
e 537 798
e 539 871
e 539 909
e 540 632
e 540 593
e 540 916
e 542 970
e 542 834
e 542 984
e 542 922
e 543 928
e 543 570
e 544 601
e 544 709
e 544 768
e 545 557
e 545 897
e 545 966
e 545 806
e 546 962
e 546 635
e 546 966
e 547 880
e 547 679
e 547 936
e 548 899
e 548 816
e 549 575
e 549 796
e 549 955
e 550 970
e 550 814
e 550 640
e 551 750
e 551 995
e 553 825
e 553 663
e 554 978
e 559 674
e 559 597
e 560 857
e 560 819
e 560 737
e 560 767
e 561 756
e 564 834
e 565 675
e 566 787
e 567 934
e 567 657
e 567 898
e 568 804
e 570 937
e 570 854
e 570 623
e 575 871
e 575 665
e 576 787
e 576 987
e 576 763
e 576 823
e 576 621
e 577 961
e 579 643
e 579 790
e 579 974
e 580 760
e 580 921
e 580 826
e 581 727
e 581 977
e 581 601
e 581 624
e 582 761
e 583 818
e 584 894
e 586 639
e 586 958
e 586 771
e 587 804
e 587 637
e 587 851
e 587 717
e 587 621
e 588 743
e 588 876
e 589 782
e 589 940
e 589 637
e 591 609
e 592 767
e 593 701
e 593 775
e 594 716
e 594 899
e 594 969
e 595 992
e 595 969
e 595 919
e 595 977
e 595 658
e 596 861
e 596 949
e 597 627
e 597 830
e 597 724
e 598 802
e 599 820
e 599 829
e 599 631
e 600 956
e 600 630
e 600 742
e 601 925
e 601 667
e 601 721
e 603 863
e 604 709
e 605 864
e 605 748
e 605 938
e 606 750
e 606 796
e 608 658
e 608 991
e 612 943
e 612 920
e 612 868
e 612 947
e 613 938
e 614 712
e 614 932
e 615 942
e 616 964
e 616 894
e 617 735
e 619 905
e 619 725
e 619 686
e 619 816
e 620 696
e 620 938
e 620 922
e 621 765
e 622 741
e 623 771
e 623 969
e 623 709
e 624 920
e 624 946
e 624 922
e 627 739
e 627 917
e 627 632
e 627 735
e 629 768
e 630 682
e 630 809
e 630 932
e 634 936
e 635 815
e 635 919
e 636 856
e 636 973
e 636 639
e 637 688
e 637 661
e 637 921
e 637 959
e 638 857
e 638 718
e 638 970
e 639 961
e 640 884
e 642 696
e 642 847
e 643 840
e 643 871
e 643 790
e 644 894
e 644 752
e 644 686
e 644 767
e 644 659
e 645 787
e 646 652
e 647 960
e 647 856
e 648 844
e 648 769
e 648 650
e 649 654
e 650 791
e 650 943
e 650 902
e 650 796
e 651 861
e 652 907
e 652 758
e 653 868
e 653 850
e 654 801
e 656 970
e 656 726
e 658 730
e 659 802
e 659 958
e 659 896
e 660 930
e 661 931
e 663 893
e 664 673
e 664 874
e 665 896
e 665 869
e 667 937
e 669 767
e 670 781
e 670 710
e 673 786
e 673 748
e 673 788
e 674 850
e 674 768
e 674 829
e 675 898
e 679 992
e 679 685
e 680 744
e 681 996
e 682 838
e 685 718
e 686 772
e 686 878
e 686 761
e 686 980
e 688 917
e 689 973
e 690 784
e 690 795
e 690 749
e 690 760
e 690 876
e 691 789
e 691 800
e 693 977
e 693 854
e 693 958
e 694 824
e 694 726
e 694 946
e 695 996
e 697 917
e 697 995
e 697 855
e 700 830
e 700 827
e 702 803
e 702 928
e 704 842
e 706 870
e 706 823
e 707 959
e 707 724
e 708 737
e 708 987
e 709 779
e 709 814
e 710 949
e 710 934
e 712 973
e 712 742
e 712 824
e 712 828
e 713 727
e 713 873
e 713 748
e 714 802
e 715 967
e 715 988
e 718 787
e 718 781
e 719 922
e 719 957
e 721 916
e 721 741
e 722 876
e 722 945
e 724 832
e 724 739
e 725 975
e 726 848
e 726 999
e 727 806
e 728 821
e 729 760
e 730 900
e 731 791
e 732 827
e 734 992
e 735 746
e 737 965
e 737 894
e 739 962
e 740 809
e 741 919
e 741 876
e 743 845
e 743 781
e 745 899
e 745 982
e 746 755
e 748 799
e 748 751
e 748 932
e 748 884
e 750 930
e 750 794
e 750 904
e 751 889
e 751 837
e 752 823
e 752 805
e 753 996
e 758 772
e 760 997
e 761 804
e 761 921
e 761 870
e 763 914
e 765 796
e 766 939
e 769 958
e 770 783
e 770 806
e 771 983
e 772 916
e 777 934
e 777 848
e 777 973
e 779 946
e 779 937
e 780 893
e 780 969
e 781 876
e 783 990
e 783 961
e 786 933
e 789 834
e 789 815
e 791 964
e 794 849
e 794 974
e 794 820
e 795 884
e 795 982
e 796 905
e 798 898
e 798 801
e 803 855
e 804 988
e 805 904
e 806 883
e 809 947
e 815 959
e 815 956
e 816 998
e 817 906
e 817 941
e 817 928
e 818 884
e 819 956
e 819 829
e 822 866
e 823 882
e 825 980
e 826 980
e 828 851
e 828 989
e 828 987
e 828 947
e 832 863
e 832 873
e 834 965
e 836 941
e 838 985
e 838 909
e 839 854
e 840 898
e 841 939
e 842 870
e 844 988
e 845 966
e 850 960
e 856 997
e 856 962
e 856 999
e 856 940
e 861 907
e 861 900
e 863 951
e 866 983
e 868 940
e 871 882
e 871 945
e 871 880
e 873 939
e 881 960
e 881 965
e 883 942
e 883 976
e 886 991
e 889 943
e 890 925
e 893 942
e 895 896
e 897 906
e 897 905
e 898 961
e 902 916
e 906 931
e 907 942
e 907 920
e 907 980
e 916 927
e 921 952
e 937 995
e 940 960
e 941 963
e 953 955
e 960 996
e 964 975
e 976 992
e 992 998
